<number of tasks>
53

<cycle time>
2004

<task times>
1 971
2 142
3 142
4 142
5 103
6 96
7 99
8 1207
9 160
10 180
11 82
12 60
13 112
14 420
15 1556
16 236
17 259
18 125
19 601
20 80
21 80
22 70
23 89
24 89
25 105
26 330
27 132
28 69
29 99
30 70
31 70
32 158
33 191
34 70
35 53
36 50
37 125
38 353
39 70
40 128
41 65
42 1775
43 91
44 91
45 113
46 487
47 138
48 80
49 80
50 65
51 40
52 742
53 1085

<precedence relations>
1,2
1,3
1,4
1,5
1,6
1,7
2,36
3,36
4,9
5,9
6,9
7,9
8,9
9,10
10,11
11,12
12,13
12,14
12,15
13,16
13,17
13,18
14,22
15,16
15,17
16,29
16,30
16,31
17,19
18,42
19,20
19,21
19,22
20,23
21,24
22,25
23,36
24,36
25,26
26,27
27,28
28,29
28,30
28,31
28,32
28,33
28,34
29,35
30,35
31,35
32,35
33,35
34,35
35,36
36,37
37,38
37,39
37,40
38,41
39,41
40,41
41,42
42,43
42,44
42,45
42,46
42,47
43,48
44,49
45,51
45,52
46,50
47,51
47,52
48,51
48,52
49,51
49,52
50,51
50,52
51,53
52,53

<setup times forward>
1,8:27
2,8:27
2,9:27
2,10:27
2,11:27
2,12:27
2,13:27
2,14:10
2,15:10
2,16:10
2,17:10
2,18:27
2,19:10
2,20:7
2,21:7
2,22:10
2,23:7
2,24:7
2,25:10
2,26:10
2,27:10
2,28:10
2,29:7
2,30:7
2,31:7
2,32:7
2,33:7
2,34:7
2,35:7
2,36:7
3,8:27
3,9:27
3,10:27
3,11:27
3,12:27
3,13:27
3,14:10
3,15:10
3,16:10
3,17:10
3,18:27
3,19:10
3,20:7
3,21:7
3,22:10
3,23:7
3,24:7
3,25:10
3,26:10
3,27:10
3,28:10
3,29:7
3,30:7
3,31:7
3,32:7
3,33:7
3,34:7
3,35:7
3,36:7
4,8:27
4,9:27
5,8:27
5,9:27
6,8:27
6,9:27
7,8:27
7,9:27
8,1:27
8,2:27
8,3:27
8,4:27
8,5:27
8,6:27
8,7:27
9,2:27
9,3:27
10,2:27
10,3:27
11,2:27
11,3:27
12,2:27
12,3:27
12,14:17
12,15:37
13,2:27
13,3:27
13,14:17
13,15:37
13,16:17
13,17:37
14,2:10
14,3:10
14,13:17
14,15:20
14,17:20
14,18:17
14,20:3
14,21:3
14,23:3
14,24:3
15,2:10
15,3:10
15,13:37
15,14:20
15,16:20
15,18:37
16,2:10
16,3:10
16,17:20
16,18:17
16,20:3
16,21:3
16,23:3
16,24:3
16,29:3
16,30:3
16,31:3
16,32:3
16,33:3
16,34:3
17,2:10
17,3:10
17,14:20
17,16:20
17,18:37
17,19:20
18,2:27
18,3:27
18,14:17
18,15:37
18,16:17
18,17:37
18,19:17
18,20:20
18,21:20
18,22:17
18,23:20
18,24:20
18,25:17
18,26:17
18,27:17
18,28:17
18,29:20
18,30:20
18,31:20
18,32:20
18,33:20
18,34:20
18,35:20
18,36:20
18,37:20
18,38:20
18,39:20
18,40:42
18,41:42
18,42:42
19,2:10
19,3:10
19,18:17
19,20:3
19,21:3
20,2:7
20,3:7
20,14:3
20,16:3
20,18:20
20,22:3
20,25:3
20,26:3
20,27:3
20,28:3
21,2:7
21,3:7
21,14:3
21,16:3
21,18:20
21,22:3
21,25:3
21,26:3
21,27:3
21,28:3
22,2:10
22,3:10
22,18:17
22,20:3
22,21:3
22,23:3
22,24:3
23,2:7
23,3:7
23,14:3
23,16:3
23,18:20
23,22:3
23,25:3
23,26:3
23,27:3
23,28:3
24,2:7
24,3:7
24,14:3
24,16:3
24,18:20
24,22:3
24,25:3
24,26:3
24,27:3
24,28:3
25,2:10
25,3:10
25,18:17
25,20:3
25,21:3
25,23:3
25,24:3
26,2:10
26,3:10
26,18:17
26,20:3
26,21:3
26,23:3
26,24:3
27,2:10
27,3:10
27,18:17
27,20:3
27,21:3
27,23:3
27,24:3
28,2:10
28,3:10
28,18:17
28,20:3
28,21:3
28,23:3
28,24:3
28,29:3
28,30:3
28,31:3
28,32:3
28,33:3
28,34:3
29,2:7
29,3:7
29,18:20
30,2:7
30,3:7
30,18:20
31,2:7
31,3:7
31,18:20
32,2:7
32,3:7
32,16:3
32,18:20
33,2:7
33,3:7
33,16:3
33,18:20
34,2:7
34,3:7
34,16:3
34,18:20
35,2:7
35,3:7
35,18:20
36,18:20
37,18:20
37,40:22
38,18:20
38,40:22
38,41:22
39,18:20
39,40:22
39,41:22
40,18:42
40,38:22
40,39:22
41,18:42
42,43:14
42,44:14
42,45:14
42,46:14
42,47:14
43,50:22
44,50:22
45,50:22
45,51:22
45,52:22
46,50:22
47,50:22
47,51:22
47,52:22
48,50:22
48,51:22
48,52:22
49,50:22
49,51:22
49,52:22
50,43:22
50,44:22
50,45:22
50,47:22
50,48:22
50,49:22

<setup times backward>
1,1:36
1,8:9
2,1:36
2,2:36
2,3:36
2,4:36
2,5:36
2,6:36
2,7:36
2,8:9
2,9:9
2,10:9
2,11:9
2,12:9
2,13:9
2,14:26
2,15:46
2,16:26
2,17:46
2,18:9
2,19:26
2,20:29
2,21:29
2,22:26
2,23:29
2,24:29
2,25:26
2,26:26
2,27:26
2,28:26
2,29:29
2,30:29
2,31:29
2,32:29
2,33:29
2,34:29
2,35:29
3,1:36
3,2:36
3,3:36
3,4:36
3,5:36
3,6:36
3,7:36
3,8:9
3,9:9
3,10:9
3,11:9
3,12:9
3,13:9
3,14:26
3,15:46
3,16:26
3,17:46
3,18:9
3,19:26
3,20:29
3,21:29
3,22:26
3,23:29
3,24:29
3,25:26
3,26:26
3,27:26
3,28:26
3,29:29
3,30:29
3,31:29
3,32:29
3,33:29
3,34:29
3,35:29
4,1:36
4,2:36
4,3:36
4,4:36
4,5:36
4,6:36
4,7:36
4,8:9
5,1:36
5,2:36
5,3:36
5,4:36
5,5:36
5,6:36
5,7:36
5,8:9
6,1:36
6,2:36
6,3:36
6,4:36
6,5:36
6,6:36
6,7:36
6,8:9
7,1:36
7,2:36
7,3:36
7,4:36
7,5:36
7,6:36
7,7:36
7,8:9
8,1:63
8,2:63
8,3:63
8,4:63
8,5:63
8,6:63
8,7:63
8,8:36
9,1:63
9,2:63
9,3:63
9,4:63
9,5:63
9,6:63
9,7:63
9,8:36
9,9:36
10,1:63
10,2:63
10,3:63
10,4:63
10,5:63
10,6:63
10,7:63
10,8:36
10,9:36
10,10:36
11,1:63
11,2:63
11,3:63
11,4:63
11,5:63
11,6:63
11,7:63
11,8:36
11,9:36
11,10:36
11,11:36
12,1:63
12,2:63
12,3:63
12,4:63
12,5:63
12,6:63
12,7:63
12,8:36
12,9:36
12,10:36
12,11:36
12,12:36
13,1:63
13,2:63
13,3:63
13,4:63
13,5:63
13,6:63
13,7:63
13,8:36
13,9:36
13,10:36
13,11:36
13,12:36
13,13:36
13,14:53
13,15:73
14,1:46
14,2:46
14,3:46
14,4:46
14,5:46
14,6:46
14,7:46
14,8:19
14,9:19
14,10:19
14,11:19
14,12:19
14,13:19
14,14:36
14,15:56
14,16:36
14,17:56
14,18:19
14,19:36
14,20:39
14,21:39
14,23:39
14,24:39
15,1:26
15,2:26
15,3:26
15,4:26
15,5:26
15,6:26
15,7:26
15,14:16
15,15:36
16,1:46
16,2:46
16,3:46
16,4:46
16,5:46
16,6:46
16,7:46
16,8:19
16,9:19
16,10:19
16,11:19
16,12:19
16,13:19
16,14:36
16,15:56
16,16:36
16,17:56
16,18:19
16,19:36
16,20:39
16,21:39
16,22:36
16,23:39
16,24:39
16,25:36
16,26:36
16,27:36
16,28:36
16,32:39
16,33:39
16,34:39
17,1:26
17,2:26
17,3:26
17,4:26
17,5:26
17,6:26
17,7:26
17,14:16
17,15:36
17,16:16
17,17:36
18,1:63
18,2:63
18,3:63
18,4:63
18,5:63
18,6:63
18,7:63
18,8:36
18,9:36
18,10:36
18,11:36
18,12:36
18,13:36
18,14:53
18,15:73
18,16:53
18,17:73
18,18:36
18,19:53
18,20:56
18,21:56
18,22:53
18,23:56
18,24:56
18,25:53
18,26:53
18,27:53
18,28:53
18,29:56
18,30:56
18,31:56
18,32:56
18,33:56
18,34:56
18,35:56
18,36:56
18,37:56
18,38:56
18,39:56
18,40:78
18,41:78
19,1:46
19,2:46
19,3:46
19,4:46
19,5:46
19,6:46
19,7:46
19,8:19
19,9:19
19,10:19
19,11:19
19,12:19
19,13:19
19,14:36
19,15:56
19,16:36
19,17:56
19,18:19
19,19:36
20,1:43
20,2:43
20,3:43
20,4:43
20,5:43
20,6:43
20,7:43
20,8:16
20,9:16
20,10:16
20,11:16
20,12:16
20,13:16
20,14:33
20,15:53
20,16:33
20,17:53
20,18:16
20,19:33
20,20:36
20,21:36
20,22:33
20,24:36
20,25:33
20,26:33
20,27:33
20,28:33
20,29:36
20,30:36
20,31:36
20,32:36
20,33:36
20,34:36
20,35:36
21,1:43
21,2:43
21,3:43
21,4:43
21,5:43
21,6:43
21,7:43
21,8:16
21,9:16
21,10:16
21,11:16
21,12:16
21,13:16
21,14:33
21,15:53
21,16:33
21,17:53
21,18:16
21,19:33
21,20:36
21,21:36
21,22:33
21,23:36
21,25:33
21,26:33
21,27:33
21,28:33
21,29:36
21,30:36
21,31:36
21,32:36
21,33:36
21,34:36
21,35:36
22,1:46
22,2:46
22,3:46
22,4:46
22,5:46
22,6:46
22,7:46
22,8:19
22,9:19
22,10:19
22,11:19
22,12:19
22,13:19
22,14:36
22,15:56
22,16:36
22,17:56
22,18:19
22,19:36
22,20:39
22,21:39
22,22:36
22,23:39
22,24:39
23,1:43
23,2:43
23,3:43
23,4:43
23,5:43
23,6:43
23,7:43
23,8:16
23,9:16
23,10:16
23,11:16
23,12:16
23,13:16
23,14:33
23,15:53
23,16:33
23,17:53
23,18:16
23,19:33
23,20:36
23,21:36
23,22:33
23,23:36
23,24:36
23,25:33
23,26:33
23,27:33
23,28:33
23,29:36
23,30:36
23,31:36
23,32:36
23,33:36
23,34:36
23,35:36
24,1:43
24,2:43
24,3:43
24,4:43
24,5:43
24,6:43
24,7:43
24,8:16
24,9:16
24,10:16
24,11:16
24,12:16
24,13:16
24,14:33
24,15:53
24,16:33
24,17:53
24,18:16
24,19:33
24,20:36
24,21:36
24,22:33
24,23:36
24,24:36
24,25:33
24,26:33
24,27:33
24,28:33
24,29:36
24,30:36
24,31:36
24,32:36
24,33:36
24,34:36
24,35:36
25,1:46
25,2:46
25,3:46
25,4:46
25,5:46
25,6:46
25,7:46
25,8:19
25,9:19
25,10:19
25,11:19
25,12:19
25,13:19
25,14:36
25,15:56
25,16:36
25,17:56
25,18:19
25,19:36
25,20:39
25,21:39
25,22:36
25,23:39
25,24:39
25,25:36
26,1:46
26,2:46
26,3:46
26,4:46
26,5:46
26,6:46
26,7:46
26,8:19
26,9:19
26,10:19
26,11:19
26,12:19
26,13:19
26,14:36
26,15:56
26,16:36
26,17:56
26,18:19
26,19:36
26,20:39
26,21:39
26,22:36
26,23:39
26,24:39
26,25:36
26,26:36
27,1:46
27,2:46
27,3:46
27,4:46
27,5:46
27,6:46
27,7:46
27,8:19
27,9:19
27,10:19
27,11:19
27,12:19
27,13:19
27,14:36
27,15:56
27,16:36
27,17:56
27,18:19
27,19:36
27,20:39
27,21:39
27,22:36
27,23:39
27,24:39
27,25:36
27,26:36
27,27:36
28,1:46
28,2:46
28,3:46
28,4:46
28,5:46
28,6:46
28,7:46
28,8:19
28,9:19
28,10:19
28,11:19
28,12:19
28,13:19
28,14:36
28,15:56
28,16:36
28,17:56
28,18:19
28,19:36
28,20:39
28,21:39
28,22:36
28,23:39
28,24:39
28,25:36
28,26:36
28,27:36
28,28:36
29,1:43
29,2:43
29,3:43
29,4:43
29,5:43
29,6:43
29,7:43
29,8:16
29,9:16
29,10:16
29,11:16
29,12:16
29,13:16
29,14:33
29,15:53
29,16:33
29,17:53
29,18:16
29,19:33
29,20:36
29,21:36
29,22:33
29,23:36
29,24:36
29,25:33
29,26:33
29,27:33
29,28:33
29,29:36
29,30:36
29,31:36
29,32:36
29,33:36
29,34:36
30,1:43
30,2:43
30,3:43
30,4:43
30,5:43
30,6:43
30,7:43
30,8:16
30,9:16
30,10:16
30,11:16
30,12:16
30,13:16
30,14:33
30,15:53
30,16:33
30,17:53
30,18:16
30,19:33
30,20:36
30,21:36
30,22:33
30,23:36
30,24:36
30,25:33
30,26:33
30,27:33
30,28:33
30,29:36
30,30:36
30,31:36
30,32:36
30,33:36
30,34:36
31,1:43
31,2:43
31,3:43
31,4:43
31,5:43
31,6:43
31,7:43
31,8:16
31,9:16
31,10:16
31,11:16
31,12:16
31,13:16
31,14:33
31,15:53
31,16:33
31,17:53
31,18:16
31,19:33
31,20:36
31,21:36
31,22:33
31,23:36
31,24:36
31,25:33
31,26:33
31,27:33
31,28:33
31,29:36
31,30:36
31,31:36
31,32:36
31,33:36
31,34:36
32,1:43
32,2:43
32,3:43
32,4:43
32,5:43
32,6:43
32,7:43
32,8:16
32,9:16
32,10:16
32,11:16
32,12:16
32,13:16
32,14:33
32,15:53
32,16:33
32,17:53
32,18:16
32,19:33
32,20:36
32,21:36
32,22:33
32,23:36
32,24:36
32,25:33
32,26:33
32,27:33
32,28:33
32,29:36
32,30:36
32,31:36
32,32:36
32,33:36
32,34:36
33,1:43
33,2:43
33,3:43
33,4:43
33,5:43
33,6:43
33,7:43
33,8:16
33,9:16
33,10:16
33,11:16
33,12:16
33,13:16
33,14:33
33,15:53
33,16:33
33,17:53
33,18:16
33,19:33
33,20:36
33,21:36
33,22:33
33,23:36
33,24:36
33,25:33
33,26:33
33,27:33
33,28:33
33,29:36
33,30:36
33,31:36
33,32:36
33,33:36
33,34:36
34,1:43
34,2:43
34,3:43
34,4:43
34,5:43
34,6:43
34,7:43
34,8:16
34,9:16
34,10:16
34,11:16
34,12:16
34,13:16
34,14:33
34,15:53
34,16:33
34,17:53
34,18:16
34,19:33
34,20:36
34,21:36
34,22:33
34,23:36
34,24:36
34,25:33
34,26:33
34,27:33
34,28:33
34,29:36
34,30:36
34,31:36
34,32:36
34,33:36
34,34:36
35,1:43
35,2:43
35,3:43
35,4:43
35,5:43
35,6:43
35,7:43
35,8:16
35,9:16
35,10:16
35,11:16
35,12:16
35,13:16
35,14:33
35,15:53
35,16:33
35,17:53
35,18:16
35,19:33
35,20:36
35,21:36
35,22:33
35,23:36
35,24:36
35,25:33
35,26:33
35,27:33
35,28:33
35,29:36
35,30:36
35,31:36
35,32:36
35,33:36
35,34:36
35,35:36
36,1:43
36,2:43
36,3:43
36,4:43
36,5:43
36,6:43
36,7:43
36,8:16
36,9:16
36,10:16
36,11:16
36,12:16
36,13:16
36,14:33
36,15:53
36,16:33
36,17:53
36,18:16
36,19:33
36,20:36
36,21:36
36,22:33
36,23:36
36,24:36
36,25:33
36,26:33
36,27:33
36,28:33
36,29:36
36,30:36
36,31:36
36,32:36
36,33:36
36,34:36
36,35:36
36,36:36
37,1:43
37,2:43
37,3:43
37,4:43
37,5:43
37,6:43
37,7:43
37,8:16
37,9:16
37,10:16
37,11:16
37,12:16
37,13:16
37,14:33
37,15:53
37,16:33
37,17:53
37,18:16
37,19:33
37,20:36
37,21:36
37,22:33
37,23:36
37,24:36
37,25:33
37,26:33
37,27:33
37,28:33
37,29:36
37,30:36
37,31:36
37,32:36
37,33:36
37,34:36
37,35:36
37,36:36
37,37:36
38,1:43
38,2:43
38,3:43
38,4:43
38,5:43
38,6:43
38,7:43
38,8:16
38,9:16
38,10:16
38,11:16
38,12:16
38,13:16
38,14:33
38,15:53
38,16:33
38,17:53
38,18:16
38,19:33
38,20:36
38,21:36
38,22:33
38,23:36
38,24:36
38,25:33
38,26:33
38,27:33
38,28:33
38,29:36
38,30:36
38,31:36
38,32:36
38,33:36
38,34:36
38,35:36
38,36:36
38,37:36
38,38:36
38,39:36
38,40:58
39,1:43
39,2:43
39,3:43
39,4:43
39,5:43
39,6:43
39,7:43
39,8:16
39,9:16
39,10:16
39,11:16
39,12:16
39,13:16
39,14:33
39,15:53
39,16:33
39,17:53
39,18:16
39,19:33
39,20:36
39,21:36
39,22:33
39,23:36
39,24:36
39,25:33
39,26:33
39,27:33
39,28:33
39,29:36
39,30:36
39,31:36
39,32:36
39,33:36
39,34:36
39,35:36
39,36:36
39,37:36
39,38:36
39,39:36
39,40:58
40,1:21
40,2:21
40,3:21
40,4:21
40,5:21
40,6:21
40,7:21
40,14:11
40,15:31
40,16:11
40,17:31
40,19:11
40,20:14
40,21:14
40,22:11
40,23:14
40,24:14
40,25:11
40,26:11
40,27:11
40,28:11
40,29:14
40,30:14
40,31:14
40,32:14
40,33:14
40,34:14
40,35:14
40,36:14
40,37:14
40,38:14
40,39:14
40,40:36
41,1:21
41,2:21
41,3:21
41,4:21
41,5:21
41,6:21
41,7:21
41,14:11
41,15:31
41,16:11
41,17:31
41,19:11
41,20:14
41,21:14
41,22:11
41,23:14
41,24:14
41,25:11
41,26:11
41,27:11
41,28:11
41,29:14
41,30:14
41,31:14
41,32:14
41,33:14
41,34:14
41,35:14
41,36:14
41,37:14
41,38:14
41,39:14
41,40:36
41,41:36
42,1:21
42,2:21
42,3:21
42,4:21
42,5:21
42,6:21
42,7:21
42,14:11
42,15:31
42,16:11
42,17:31
42,19:11
42,20:14
42,21:14
42,22:11
42,23:14
42,24:14
42,25:11
42,26:11
42,27:11
42,28:11
42,29:14
42,30:14
42,31:14
42,32:14
42,33:14
42,34:14
42,35:14
42,36:14
42,37:14
42,38:14
42,39:14
42,40:36
42,41:36
42,42:36
43,1:35
43,2:35
43,3:35
43,4:35
43,5:35
43,6:35
43,7:35
43,8:8
43,9:8
43,10:8
43,11:8
43,12:8
43,13:8
43,14:25
43,15:45
43,16:25
43,17:45
43,18:8
43,19:25
43,20:28
43,21:28
43,22:25
43,23:28
43,24:28
43,25:25
43,26:25
43,27:25
43,28:25
43,29:28
43,30:28
43,31:28
43,32:28
43,33:28
43,34:28
43,35:28
43,36:28
43,37:28
43,38:28
43,39:28
43,40:50
43,41:50
43,42:50
43,43:36
43,44:36
43,45:36
43,46:36
43,47:36
43,49:36
43,50:58
44,1:35
44,2:35
44,3:35
44,4:35
44,5:35
44,6:35
44,7:35
44,8:8
44,9:8
44,10:8
44,11:8
44,12:8
44,13:8
44,14:25
44,15:45
44,16:25
44,17:45
44,18:8
44,19:25
44,20:28
44,21:28
44,22:25
44,23:28
44,24:28
44,25:25
44,26:25
44,27:25
44,28:25
44,29:28
44,30:28
44,31:28
44,32:28
44,33:28
44,34:28
44,35:28
44,36:28
44,37:28
44,38:28
44,39:28
44,40:50
44,41:50
44,42:50
44,43:36
44,44:36
44,45:36
44,46:36
44,47:36
44,48:36
44,50:58
45,1:35
45,2:35
45,3:35
45,4:35
45,5:35
45,6:35
45,7:35
45,8:8
45,9:8
45,10:8
45,11:8
45,12:8
45,13:8
45,14:25
45,15:45
45,16:25
45,17:45
45,18:8
45,19:25
45,20:28
45,21:28
45,22:25
45,23:28
45,24:28
45,25:25
45,26:25
45,27:25
45,28:25
45,29:28
45,30:28
45,31:28
45,32:28
45,33:28
45,34:28
45,35:28
45,36:28
45,37:28
45,38:28
45,39:28
45,40:50
45,41:50
45,42:50
45,43:36
45,44:36
45,45:36
45,46:36
45,47:36
45,48:36
45,49:36
45,50:58
46,1:35
46,2:35
46,3:35
46,4:35
46,5:35
46,6:35
46,7:35
46,8:8
46,9:8
46,10:8
46,11:8
46,12:8
46,13:8
46,14:25
46,15:45
46,16:25
46,17:45
46,18:8
46,19:25
46,20:28
46,21:28
46,22:25
46,23:28
46,24:28
46,25:25
46,26:25
46,27:25
46,28:25
46,29:28
46,30:28
46,31:28
46,32:28
46,33:28
46,34:28
46,35:28
46,36:28
46,37:28
46,38:28
46,39:28
46,40:50
46,41:50
46,42:50
46,43:36
46,44:36
46,45:36
46,46:36
46,47:36
46,48:36
46,49:36
47,1:35
47,2:35
47,3:35
47,4:35
47,5:35
47,6:35
47,7:35
47,8:8
47,9:8
47,10:8
47,11:8
47,12:8
47,13:8
47,14:25
47,15:45
47,16:25
47,17:45
47,18:8
47,19:25
47,20:28
47,21:28
47,22:25
47,23:28
47,24:28
47,25:25
47,26:25
47,27:25
47,28:25
47,29:28
47,30:28
47,31:28
47,32:28
47,33:28
47,34:28
47,35:28
47,36:28
47,37:28
47,38:28
47,39:28
47,40:50
47,41:50
47,42:50
47,43:36
47,44:36
47,45:36
47,46:36
47,47:36
47,48:36
47,49:36
47,50:58
48,1:35
48,2:35
48,3:35
48,4:35
48,5:35
48,6:35
48,7:35
48,8:8
48,9:8
48,10:8
48,11:8
48,12:8
48,13:8
48,14:25
48,15:45
48,16:25
48,17:45
48,18:8
48,19:25
48,20:28
48,21:28
48,22:25
48,23:28
48,24:28
48,25:25
48,26:25
48,27:25
48,28:25
48,29:28
48,30:28
48,31:28
48,32:28
48,33:28
48,34:28
48,35:28
48,36:28
48,37:28
48,38:28
48,39:28
48,40:50
48,41:50
48,42:50
48,43:36
48,44:36
48,45:36
48,46:36
48,47:36
48,48:36
48,49:36
48,50:58
49,1:35
49,2:35
49,3:35
49,4:35
49,5:35
49,6:35
49,7:35
49,8:8
49,9:8
49,10:8
49,11:8
49,12:8
49,13:8
49,14:25
49,15:45
49,16:25
49,17:45
49,18:8
49,19:25
49,20:28
49,21:28
49,22:25
49,23:28
49,24:28
49,25:25
49,26:25
49,27:25
49,28:25
49,29:28
49,30:28
49,31:28
49,32:28
49,33:28
49,34:28
49,35:28
49,36:28
49,37:28
49,38:28
49,39:28
49,40:50
49,41:50
49,42:50
49,43:36
49,44:36
49,45:36
49,46:36
49,47:36
49,48:36
49,49:36
49,50:58
50,1:13
50,2:13
50,3:13
50,4:13
50,5:13
50,6:13
50,7:13
50,14:3
50,15:23
50,16:3
50,17:23
50,19:3
50,20:6
50,21:6
50,22:3
50,23:6
50,24:6
50,25:3
50,26:3
50,27:3
50,28:3
50,29:6
50,30:6
50,31:6
50,32:6
50,33:6
50,34:6
50,35:6
50,36:6
50,37:6
50,38:6
50,39:6
50,40:28
50,41:28
50,42:28
50,43:14
50,44:14
50,45:14
50,46:14
50,47:14
50,48:14
50,49:14
50,50:36
51,1:13
51,2:13
51,3:13
51,4:13
51,5:13
51,6:13
51,7:13
51,14:3
51,15:23
51,16:3
51,17:23
51,19:3
51,20:6
51,21:6
51,22:3
51,23:6
51,24:6
51,25:3
51,26:3
51,27:3
51,28:3
51,29:6
51,30:6
51,31:6
51,32:6
51,33:6
51,34:6
51,35:6
51,36:6
51,37:6
51,38:6
51,39:6
51,40:28
51,41:28
51,42:28
51,43:14
51,44:14
51,45:14
51,46:14
51,47:14
51,48:14
51,49:14
51,50:36
51,51:36
51,52:36
52,1:13
52,2:13
52,3:13
52,4:13
52,5:13
52,6:13
52,7:13
52,14:3
52,15:23
52,16:3
52,17:23
52,19:3
52,20:6
52,21:6
52,22:3
52,23:6
52,24:6
52,25:3
52,26:3
52,27:3
52,28:3
52,29:6
52,30:6
52,31:6
52,32:6
52,33:6
52,34:6
52,35:6
52,36:6
52,37:6
52,38:6
52,39:6
52,40:28
52,41:28
52,42:28
52,43:14
52,44:14
52,45:14
52,46:14
52,47:14
52,48:14
52,49:14
52,50:36
52,51:36
52,52:36
53,1:13
53,2:13
53,3:13
53,4:13
53,5:13
53,6:13
53,7:13
53,14:3
53,15:23
53,16:3
53,17:23
53,19:3
53,20:6
53,21:6
53,22:3
53,23:6
53,24:6
53,25:3
53,26:3
53,27:3
53,28:3
53,29:6
53,30:6
53,31:6
53,32:6
53,33:6
53,34:6
53,35:6
53,36:6
53,37:6
53,38:6
53,39:6
53,40:28
53,41:28
53,42:28
53,43:14
53,44:14
53,45:14
53,46:14
53,47:14
53,48:14
53,49:14
53,50:36
53,51:36
53,52:36
53,53:36

<end>

<optimal SALBP-1 value>
8


<rand seed>
467321153

